c *********************************
c * Circuit generated by BenCGen
c *
c * CarrySkipAdder_48_48_48_InOut_G4T
c *
c * Ports with 1 gate(s): 14
c * Ports with 2 gate(s): 265
c * Ports with 4 gate(s): 12
c * Total gates: 291
c *********************************
p cnf 387 979
1 147 0
-1 -147 0
1 -146 0
147 -146 0
-1 -147 146 0
1 49 -150 0
-1 49 150 0
1 -49 150 0
-1 -49 -150 0
150 146 -97 0
-150 146 97 0
150 -146 97 0
-150 -146 -97 0
146 -151 0
150 -151 0
-146 -150 151 0
49 -152 0
1 -152 0
-49 -1 152 0
-151 149 0
-152 149 0
151 152 -149 0
2 50 -154 0
-2 50 154 0
2 -50 154 0
-2 -50 -154 0
154 149 -98 0
-154 149 98 0
154 -149 98 0
-154 -149 -98 0
149 -155 0
154 -155 0
-149 -154 155 0
50 -156 0
2 -156 0
-50 -2 156 0
-155 153 0
-156 153 0
155 156 -153 0
3 51 -158 0
-3 51 158 0
3 -51 158 0
-3 -51 -158 0
158 153 -99 0
-158 153 99 0
158 -153 99 0
-158 -153 -99 0
153 -159 0
158 -159 0
-153 -158 159 0
51 -160 0
3 -160 0
-51 -3 160 0
-159 157 0
-160 157 0
159 160 -157 0
4 52 -161 0
-4 52 161 0
4 -52 161 0
-4 -52 -161 0
161 157 -100 0
-161 157 100 0
161 -157 100 0
-161 -157 -100 0
157 -162 0
161 -162 0
-157 -161 162 0
52 -163 0
4 -163 0
-52 -4 163 0
-162 148 0
-163 148 0
162 163 -148 0
150 -164 0
154 -164 0
158 -164 0
161 -164 0
-150 -154 -158 -161 164 0
163 -165 0
-163 165 0
146 -166 0
164 -166 0
-146 -164 166 0
-166 167 0
-148 167 0
166 148 -167 0
5 53 -170 0
-5 53 170 0
5 -53 170 0
-5 -53 -170 0
170 167 -101 0
-170 167 101 0
170 -167 101 0
-170 -167 -101 0
167 -171 0
170 -171 0
-167 -170 171 0
53 -172 0
5 -172 0
-53 -5 172 0
-171 169 0
-172 169 0
171 172 -169 0
6 54 -174 0
-6 54 174 0
6 -54 174 0
-6 -54 -174 0
174 169 -102 0
-174 169 102 0
174 -169 102 0
-174 -169 -102 0
169 -175 0
174 -175 0
-169 -174 175 0
54 -176 0
6 -176 0
-54 -6 176 0
-175 173 0
-176 173 0
175 176 -173 0
7 55 -178 0
-7 55 178 0
7 -55 178 0
-7 -55 -178 0
178 173 -103 0
-178 173 103 0
178 -173 103 0
-178 -173 -103 0
173 -179 0
178 -179 0
-173 -178 179 0
55 -180 0
7 -180 0
-55 -7 180 0
-179 177 0
-180 177 0
179 180 -177 0
8 56 -181 0
-8 56 181 0
8 -56 181 0
-8 -56 -181 0
181 177 -104 0
-181 177 104 0
181 -177 104 0
-181 -177 -104 0
177 -182 0
181 -182 0
-177 -181 182 0
56 -183 0
8 -183 0
-56 -8 183 0
-182 168 0
-183 168 0
182 183 -168 0
170 -184 0
174 -184 0
178 -184 0
181 -184 0
-170 -174 -178 -181 184 0
183 -185 0
-183 185 0
167 -186 0
184 -186 0
-167 -184 186 0
-186 187 0
-168 187 0
186 168 -187 0
9 57 -190 0
-9 57 190 0
9 -57 190 0
-9 -57 -190 0
190 187 -105 0
-190 187 105 0
190 -187 105 0
-190 -187 -105 0
187 -191 0
190 -191 0
-187 -190 191 0
57 -192 0
9 -192 0
-57 -9 192 0
-191 189 0
-192 189 0
191 192 -189 0
10 58 -194 0
-10 58 194 0
10 -58 194 0
-10 -58 -194 0
194 189 -106 0
-194 189 106 0
194 -189 106 0
-194 -189 -106 0
189 -195 0
194 -195 0
-189 -194 195 0
58 -196 0
10 -196 0
-58 -10 196 0
-195 193 0
-196 193 0
195 196 -193 0
11 59 -198 0
-11 59 198 0
11 -59 198 0
-11 -59 -198 0
198 193 -107 0
-198 193 107 0
198 -193 107 0
-198 -193 -107 0
193 -199 0
198 -199 0
-193 -198 199 0
59 -200 0
11 -200 0
-59 -11 200 0
-199 197 0
-200 197 0
199 200 -197 0
12 60 -201 0
-12 60 201 0
12 -60 201 0
-12 -60 -201 0
201 197 -108 0
-201 197 108 0
201 -197 108 0
-201 -197 -108 0
197 -202 0
201 -202 0
-197 -201 202 0
60 -203 0
12 -203 0
-60 -12 203 0
-202 188 0
-203 188 0
202 203 -188 0
190 -204 0
194 -204 0
198 -204 0
201 -204 0
-190 -194 -198 -201 204 0
203 -205 0
-203 205 0
187 -206 0
204 -206 0
-187 -204 206 0
-206 207 0
-188 207 0
206 188 -207 0
13 61 -210 0
-13 61 210 0
13 -61 210 0
-13 -61 -210 0
210 207 -109 0
-210 207 109 0
210 -207 109 0
-210 -207 -109 0
207 -211 0
210 -211 0
-207 -210 211 0
61 -212 0
13 -212 0
-61 -13 212 0
-211 209 0
-212 209 0
211 212 -209 0
14 62 -214 0
-14 62 214 0
14 -62 214 0
-14 -62 -214 0
214 209 -110 0
-214 209 110 0
214 -209 110 0
-214 -209 -110 0
209 -215 0
214 -215 0
-209 -214 215 0
62 -216 0
14 -216 0
-62 -14 216 0
-215 213 0
-216 213 0
215 216 -213 0
15 63 -218 0
-15 63 218 0
15 -63 218 0
-15 -63 -218 0
218 213 -111 0
-218 213 111 0
218 -213 111 0
-218 -213 -111 0
213 -219 0
218 -219 0
-213 -218 219 0
63 -220 0
15 -220 0
-63 -15 220 0
-219 217 0
-220 217 0
219 220 -217 0
16 64 -221 0
-16 64 221 0
16 -64 221 0
-16 -64 -221 0
221 217 -112 0
-221 217 112 0
221 -217 112 0
-221 -217 -112 0
217 -222 0
221 -222 0
-217 -221 222 0
64 -223 0
16 -223 0
-64 -16 223 0
-222 208 0
-223 208 0
222 223 -208 0
210 -224 0
214 -224 0
218 -224 0
221 -224 0
-210 -214 -218 -221 224 0
223 -225 0
-223 225 0
207 -226 0
224 -226 0
-207 -224 226 0
-226 227 0
-208 227 0
226 208 -227 0
17 65 -230 0
-17 65 230 0
17 -65 230 0
-17 -65 -230 0
230 227 -113 0
-230 227 113 0
230 -227 113 0
-230 -227 -113 0
227 -231 0
230 -231 0
-227 -230 231 0
65 -232 0
17 -232 0
-65 -17 232 0
-231 229 0
-232 229 0
231 232 -229 0
18 66 -234 0
-18 66 234 0
18 -66 234 0
-18 -66 -234 0
234 229 -114 0
-234 229 114 0
234 -229 114 0
-234 -229 -114 0
229 -235 0
234 -235 0
-229 -234 235 0
66 -236 0
18 -236 0
-66 -18 236 0
-235 233 0
-236 233 0
235 236 -233 0
19 67 -238 0
-19 67 238 0
19 -67 238 0
-19 -67 -238 0
238 233 -115 0
-238 233 115 0
238 -233 115 0
-238 -233 -115 0
233 -239 0
238 -239 0
-233 -238 239 0
67 -240 0
19 -240 0
-67 -19 240 0
-239 237 0
-240 237 0
239 240 -237 0
20 68 -241 0
-20 68 241 0
20 -68 241 0
-20 -68 -241 0
241 237 -116 0
-241 237 116 0
241 -237 116 0
-241 -237 -116 0
237 -242 0
241 -242 0
-237 -241 242 0
68 -243 0
20 -243 0
-68 -20 243 0
-242 228 0
-243 228 0
242 243 -228 0
230 -244 0
234 -244 0
238 -244 0
241 -244 0
-230 -234 -238 -241 244 0
243 -245 0
-243 245 0
227 -246 0
244 -246 0
-227 -244 246 0
-246 247 0
-228 247 0
246 228 -247 0
21 69 -250 0
-21 69 250 0
21 -69 250 0
-21 -69 -250 0
250 247 -117 0
-250 247 117 0
250 -247 117 0
-250 -247 -117 0
247 -251 0
250 -251 0
-247 -250 251 0
69 -252 0
21 -252 0
-69 -21 252 0
-251 249 0
-252 249 0
251 252 -249 0
22 70 -254 0
-22 70 254 0
22 -70 254 0
-22 -70 -254 0
254 249 -118 0
-254 249 118 0
254 -249 118 0
-254 -249 -118 0
249 -255 0
254 -255 0
-249 -254 255 0
70 -256 0
22 -256 0
-70 -22 256 0
-255 253 0
-256 253 0
255 256 -253 0
23 71 -258 0
-23 71 258 0
23 -71 258 0
-23 -71 -258 0
258 253 -119 0
-258 253 119 0
258 -253 119 0
-258 -253 -119 0
253 -259 0
258 -259 0
-253 -258 259 0
71 -260 0
23 -260 0
-71 -23 260 0
-259 257 0
-260 257 0
259 260 -257 0
24 72 -261 0
-24 72 261 0
24 -72 261 0
-24 -72 -261 0
261 257 -120 0
-261 257 120 0
261 -257 120 0
-261 -257 -120 0
257 -262 0
261 -262 0
-257 -261 262 0
72 -263 0
24 -263 0
-72 -24 263 0
-262 248 0
-263 248 0
262 263 -248 0
250 -264 0
254 -264 0
258 -264 0
261 -264 0
-250 -254 -258 -261 264 0
263 -265 0
-263 265 0
247 -266 0
264 -266 0
-247 -264 266 0
-266 267 0
-248 267 0
266 248 -267 0
25 73 -270 0
-25 73 270 0
25 -73 270 0
-25 -73 -270 0
270 267 -121 0
-270 267 121 0
270 -267 121 0
-270 -267 -121 0
267 -271 0
270 -271 0
-267 -270 271 0
73 -272 0
25 -272 0
-73 -25 272 0
-271 269 0
-272 269 0
271 272 -269 0
26 74 -274 0
-26 74 274 0
26 -74 274 0
-26 -74 -274 0
274 269 -122 0
-274 269 122 0
274 -269 122 0
-274 -269 -122 0
269 -275 0
274 -275 0
-269 -274 275 0
74 -276 0
26 -276 0
-74 -26 276 0
-275 273 0
-276 273 0
275 276 -273 0
27 75 -278 0
-27 75 278 0
27 -75 278 0
-27 -75 -278 0
278 273 -123 0
-278 273 123 0
278 -273 123 0
-278 -273 -123 0
273 -279 0
278 -279 0
-273 -278 279 0
75 -280 0
27 -280 0
-75 -27 280 0
-279 277 0
-280 277 0
279 280 -277 0
28 76 -281 0
-28 76 281 0
28 -76 281 0
-28 -76 -281 0
281 277 -124 0
-281 277 124 0
281 -277 124 0
-281 -277 -124 0
277 -282 0
281 -282 0
-277 -281 282 0
76 -283 0
28 -283 0
-76 -28 283 0
-282 268 0
-283 268 0
282 283 -268 0
270 -284 0
274 -284 0
278 -284 0
281 -284 0
-270 -274 -278 -281 284 0
283 -285 0
-283 285 0
267 -286 0
284 -286 0
-267 -284 286 0
-286 287 0
-268 287 0
286 268 -287 0
29 77 -290 0
-29 77 290 0
29 -77 290 0
-29 -77 -290 0
290 287 -125 0
-290 287 125 0
290 -287 125 0
-290 -287 -125 0
287 -291 0
290 -291 0
-287 -290 291 0
77 -292 0
29 -292 0
-77 -29 292 0
-291 289 0
-292 289 0
291 292 -289 0
30 78 -294 0
-30 78 294 0
30 -78 294 0
-30 -78 -294 0
294 289 -126 0
-294 289 126 0
294 -289 126 0
-294 -289 -126 0
289 -295 0
294 -295 0
-289 -294 295 0
78 -296 0
30 -296 0
-78 -30 296 0
-295 293 0
-296 293 0
295 296 -293 0
31 79 -298 0
-31 79 298 0
31 -79 298 0
-31 -79 -298 0
298 293 -127 0
-298 293 127 0
298 -293 127 0
-298 -293 -127 0
293 -299 0
298 -299 0
-293 -298 299 0
79 -300 0
31 -300 0
-79 -31 300 0
-299 297 0
-300 297 0
299 300 -297 0
32 80 -301 0
-32 80 301 0
32 -80 301 0
-32 -80 -301 0
301 297 -128 0
-301 297 128 0
301 -297 128 0
-301 -297 -128 0
297 -302 0
301 -302 0
-297 -301 302 0
80 -303 0
32 -303 0
-80 -32 303 0
-302 288 0
-303 288 0
302 303 -288 0
290 -304 0
294 -304 0
298 -304 0
301 -304 0
-290 -294 -298 -301 304 0
303 -305 0
-303 305 0
287 -306 0
304 -306 0
-287 -304 306 0
-306 307 0
-288 307 0
306 288 -307 0
33 81 -310 0
-33 81 310 0
33 -81 310 0
-33 -81 -310 0
310 307 -129 0
-310 307 129 0
310 -307 129 0
-310 -307 -129 0
307 -311 0
310 -311 0
-307 -310 311 0
81 -312 0
33 -312 0
-81 -33 312 0
-311 309 0
-312 309 0
311 312 -309 0
34 82 -314 0
-34 82 314 0
34 -82 314 0
-34 -82 -314 0
314 309 -130 0
-314 309 130 0
314 -309 130 0
-314 -309 -130 0
309 -315 0
314 -315 0
-309 -314 315 0
82 -316 0
34 -316 0
-82 -34 316 0
-315 313 0
-316 313 0
315 316 -313 0
35 83 -318 0
-35 83 318 0
35 -83 318 0
-35 -83 -318 0
318 313 -131 0
-318 313 131 0
318 -313 131 0
-318 -313 -131 0
313 -319 0
318 -319 0
-313 -318 319 0
83 -320 0
35 -320 0
-83 -35 320 0
-319 317 0
-320 317 0
319 320 -317 0
36 84 -321 0
-36 84 321 0
36 -84 321 0
-36 -84 -321 0
321 317 -132 0
-321 317 132 0
321 -317 132 0
-321 -317 -132 0
317 -322 0
321 -322 0
-317 -321 322 0
84 -323 0
36 -323 0
-84 -36 323 0
-322 308 0
-323 308 0
322 323 -308 0
310 -324 0
314 -324 0
318 -324 0
321 -324 0
-310 -314 -318 -321 324 0
323 -325 0
-323 325 0
307 -326 0
324 -326 0
-307 -324 326 0
-326 327 0
-308 327 0
326 308 -327 0
37 85 -330 0
-37 85 330 0
37 -85 330 0
-37 -85 -330 0
330 327 -133 0
-330 327 133 0
330 -327 133 0
-330 -327 -133 0
327 -331 0
330 -331 0
-327 -330 331 0
85 -332 0
37 -332 0
-85 -37 332 0
-331 329 0
-332 329 0
331 332 -329 0
38 86 -334 0
-38 86 334 0
38 -86 334 0
-38 -86 -334 0
334 329 -134 0
-334 329 134 0
334 -329 134 0
-334 -329 -134 0
329 -335 0
334 -335 0
-329 -334 335 0
86 -336 0
38 -336 0
-86 -38 336 0
-335 333 0
-336 333 0
335 336 -333 0
39 87 -338 0
-39 87 338 0
39 -87 338 0
-39 -87 -338 0
338 333 -135 0
-338 333 135 0
338 -333 135 0
-338 -333 -135 0
333 -339 0
338 -339 0
-333 -338 339 0
87 -340 0
39 -340 0
-87 -39 340 0
-339 337 0
-340 337 0
339 340 -337 0
40 88 -341 0
-40 88 341 0
40 -88 341 0
-40 -88 -341 0
341 337 -136 0
-341 337 136 0
341 -337 136 0
-341 -337 -136 0
337 -342 0
341 -342 0
-337 -341 342 0
88 -343 0
40 -343 0
-88 -40 343 0
-342 328 0
-343 328 0
342 343 -328 0
330 -344 0
334 -344 0
338 -344 0
341 -344 0
-330 -334 -338 -341 344 0
343 -345 0
-343 345 0
327 -346 0
344 -346 0
-327 -344 346 0
-346 347 0
-328 347 0
346 328 -347 0
41 89 -350 0
-41 89 350 0
41 -89 350 0
-41 -89 -350 0
350 347 -137 0
-350 347 137 0
350 -347 137 0
-350 -347 -137 0
347 -351 0
350 -351 0
-347 -350 351 0
89 -352 0
41 -352 0
-89 -41 352 0
-351 349 0
-352 349 0
351 352 -349 0
42 90 -354 0
-42 90 354 0
42 -90 354 0
-42 -90 -354 0
354 349 -138 0
-354 349 138 0
354 -349 138 0
-354 -349 -138 0
349 -355 0
354 -355 0
-349 -354 355 0
90 -356 0
42 -356 0
-90 -42 356 0
-355 353 0
-356 353 0
355 356 -353 0
43 91 -358 0
-43 91 358 0
43 -91 358 0
-43 -91 -358 0
358 353 -139 0
-358 353 139 0
358 -353 139 0
-358 -353 -139 0
353 -359 0
358 -359 0
-353 -358 359 0
91 -360 0
43 -360 0
-91 -43 360 0
-359 357 0
-360 357 0
359 360 -357 0
44 92 -361 0
-44 92 361 0
44 -92 361 0
-44 -92 -361 0
361 357 -140 0
-361 357 140 0
361 -357 140 0
-361 -357 -140 0
357 -362 0
361 -362 0
-357 -361 362 0
92 -363 0
44 -363 0
-92 -44 363 0
-362 348 0
-363 348 0
362 363 -348 0
350 -364 0
354 -364 0
358 -364 0
361 -364 0
-350 -354 -358 -361 364 0
363 -365 0
-363 365 0
347 -366 0
364 -366 0
-347 -364 366 0
-366 367 0
-348 367 0
366 348 -367 0
45 93 -370 0
-45 93 370 0
45 -93 370 0
-45 -93 -370 0
370 367 -141 0
-370 367 141 0
370 -367 141 0
-370 -367 -141 0
367 -371 0
370 -371 0
-367 -370 371 0
93 -372 0
45 -372 0
-93 -45 372 0
-371 369 0
-372 369 0
371 372 -369 0
46 94 -374 0
-46 94 374 0
46 -94 374 0
-46 -94 -374 0
374 369 -142 0
-374 369 142 0
374 -369 142 0
-374 -369 -142 0
369 -375 0
374 -375 0
-369 -374 375 0
94 -376 0
46 -376 0
-94 -46 376 0
-375 373 0
-376 373 0
375 376 -373 0
47 95 -378 0
-47 95 378 0
47 -95 378 0
-47 -95 -378 0
378 373 -143 0
-378 373 143 0
378 -373 143 0
-378 -373 -143 0
373 -379 0
378 -379 0
-373 -378 379 0
95 -380 0
47 -380 0
-95 -47 380 0
-379 377 0
-380 377 0
379 380 -377 0
48 96 -381 0
-48 96 381 0
48 -96 381 0
-48 -96 -381 0
381 377 -144 0
-381 377 144 0
381 -377 144 0
-381 -377 -144 0
377 -382 0
381 -382 0
-377 -381 382 0
96 -383 0
48 -383 0
-96 -48 383 0
-382 368 0
-383 368 0
382 383 -368 0
370 -384 0
374 -384 0
378 -384 0
381 -384 0
-370 -374 -378 -381 384 0
383 -385 0
-383 385 0
367 -386 0
384 -386 0
-367 -384 386 0
-386 387 0
-368 387 0
386 368 -387 0
387 -145 0
-387 145 0
